20260
20327
20327
20327
20327
20327
20327
20327
20327
20327
20327
20327
20327
20327
20327
20327
20327
20327
20327
20327
20327
20327
20327
20327
20327
20327
20327
20327
20327
20327
20327
20327
20327
20327
20327
20327
20335
20335
20335
20335
20335
20335
20335
20335
20335
20350
20350
20350
20350
20350
20350
20350
20350
20350
20350
20350
20350
20395
20395
20395
20395
20395
20395
20395
20395
20440
20440
20440
20440
20440
20440
20440
20440
20440
20440
20440
20440
20440
20440
20440
20440
20440
20470
20470
20470
20470
20470
20470
20470
20470
20470
20470
20470
20470
20470
20485
20485
20485
20485
